(declare-const term_to_project_onto2_integralized Int)
(declare-const term_to_project_onto3_integralized Int)
(declare-const c Int)
(declare-const term_to_project_onto_integralized Int)
(declare-const term_to_project_onto4_integralized Int)
(declare-const term_to_project_onto5_integralized Int)
(declare-const tmp___2 Int)
(declare-const term_to_project_onto1_integralized Int)
(declare-const term_to_project_onto0_integralized Int)
(assert (exists
         ((|tmp___2'?1?1| Int) (|z'?2?2| Int) (havoc?3?3 Int)
            (|tmp___1'?4?4| Int) (|y'?5?5| Int) (|x'?6?6| Int) (K?7?7 Int)
            (havoc?8?8 Int) (|tmp___0'?9?9| Int) (|y'?10?10| Int)
            (|c'?11?11| Int) (|x'?12?12| Int) (K?13?13 Int)
            (|tmp___0'?14?14| Int) (|c'?15?15| Int) (|tmp___1'?16?16| Int)
            (|y'?17?17| Int) (|x'?18?18| Int) (havoc?19?19 Int)
            (tmp___1?20?20 Int) (z?21?21 Int) (y?22?22 Int) (x?23?23 Int)
            (tmp___0?24?24 Int) (k?25?25 Int))
         (and (= (+ (- z?21?21) y?22?22 k?25?25) 0)
                (or (<= (+ havoc?19?19 1) 0) (<= (+ (- havoc?19?19) 1) 0))
                (= (+ x?23?23 (- |x'?12?12|) K?13?13) 0)
                (= (+ (- |c'?11?11|) K?13?13) 0)
                (<= (+ |y'?10?10| (- K?13?13) (- y?22?22)) 0)
                (<= (+ (- |y'?10?10|) (- K?13?13) y?22?22) 0)
                (or (and (= K?13?13 0)
                           (= (+ (- |tmp___0'?9?9|) tmp___0?24?24) 0)
                           (= (- |c'?11?11|) 0)
                           (= (+ (- |y'?10?10|) y?22?22) 0)
                           (= (+ x?23?23 (- |x'?12?12|)) 0))
                      (and (<= (+ (- K?13?13) 1) 0)
                             (<= (+ (- |c'?11?11|) 1) 0))) (<= (- K?13?13) 0)
                (<= (- |c'?11?11|) 0) (= havoc?8?8 0)
                (= (+ (- |x'?6?6|) (- K?7?7) |x'?12?12|) 0)
                (= (+ (- |y'?5?5|) (- K?7?7) |y'?10?10|) 0)
                (or (and (= K?7?7 0)
                           (= (+ (- |tmp___1'?4?4|) tmp___1?20?20) 0)
                           (= (+ (- |y'?5?5|) |y'?10?10|) 0)
                           (= (+ (- |x'?6?6|) |x'?12?12|) 0))
                      (<= (+ (- K?7?7) 1) 0)) (<= (- K?7?7) 0)
                (= havoc?3?3 0) (= (+ |tmp___2'?1?1| (- havoc?19?19)) 0)
                (= (+ |tmp___1'?16?16| (- havoc?3?3)) 0)
                (= (+ |tmp___0'?14?14| (- havoc?8?8)) 0)
                (= (+ |c'?15?15| (- |c'?11?11|)) 0)
                (= (+ |y'?17?17| (- |y'?5?5|)) 0)
                (= (+ |x'?18?18| (- |x'?6?6|)) 0)
                (= (+ |z'?2?2| (- |y'?5?5|) (- k?25?25)) 0)
                (= (+ term_to_project_onto5_integralized
                        (- (+ |z'?2?2| (- z?21?21)))) 0)
                (= (+ term_to_project_onto4_integralized
                        (- (+ |x'?18?18| (- x?23?23)))) 0)
                (= (+ term_to_project_onto3_integralized
                        (- (+ |y'?17?17| (- y?22?22)))) 0)
                (= (+ term_to_project_onto2_integralized
                        (- (+ |c'?15?15| (- c)))) 0)
                (= (+ term_to_project_onto1_integralized
                        (- (+ |tmp___0'?14?14| (- tmp___0?24?24)))) 0)
                (= (+ term_to_project_onto0_integralized
                        (- (+ |tmp___1'?16?16| (- tmp___1?20?20)))) 0)
                (= (+ term_to_project_onto_integralized
                        (- (+ |tmp___2'?1?1| (- tmp___2)))) 0))))